NAME /Users/henri/Research/solvers/instances/idol-instances/robust/collection/cbp_Subramanyam_et_al_2020/CapBud_N5_11/models/uncertain_technology_matrix/
ROWS
 N  OBJ
 L  capacity
 L  c_235
 L  c_236
 L  c_237
 L  c_238
 L  c_239
COLUMNS
    MARKER    'MARKER'                 'INTORG'
    x_0        OBJ        -2.73009
    x_0        c_235      1
    x_0        capacity   0.546018
    x_1        OBJ        -9.70075
    x_1        c_236      1
    x_1        capacity   1.94015
    x_2        OBJ        -0.254974
    x_2        c_237      1
    x_2        capacity   0.0509947
    x_3        OBJ        -8.88044
    x_3        c_238      1
    x_3        capacity   1.77609
    x_4        OBJ        -7.08609
    x_4        c_239      1
    x_4        capacity   1.41722
    y_0        OBJ        -2.18407
    y_0        c_235      1
    y_0        capacity   0.546018
    y_1        OBJ        -7.7606
    y_1        c_236      1
    y_1        capacity   1.94015
    y_2        OBJ        -0.203979
    y_2        c_237      1
    y_2        capacity   0.0509947
    y_3        OBJ        -7.10435
    y_3        c_238      1
    y_3        capacity   1.77609
    y_4        OBJ        -5.66887
    y_4        c_239      1
    y_4        capacity   1.41722
    MARKER    'MARKER'                 'INTEND'
RHS
    RHS       capacity   14.3262
    RHS       c_235      1
    RHS       c_236      1
    RHS       c_237      1
    RHS       c_238      1
    RHS       c_239      1
BOUNDS
 LI BND       x_0        0
 UI BND       x_0        1
 LI BND       x_1        0
 UI BND       x_1        1
 LI BND       x_2        0
 UI BND       x_2        1
 LI BND       x_3        0
 UI BND       x_3        1
 LI BND       x_4        0
 UI BND       x_4        1
 LI BND       y_0        0
 UI BND       y_0        1
 LI BND       y_1        0
 UI BND       y_1        1
 LI BND       y_2        0
 UI BND       y_2        1
 LI BND       y_3        0
 UI BND       y_3        1
 LI BND       y_4        0
 UI BND       y_4        1
ENDATA
